
  12    4
  10   10   10   10

   0   0   0   0   0   6 2 3 4 5 10 11 
   6  10  10  10  10   3 9 7 6 
   6  10  10  10  10   3 9 8 7 
   7  10  10  10  10   2 7 6 
   3  10  10  10  10   2 9 7 
   7  10  10  10  10   1 8 
   6  10  10  10  10   1 12
   6  10  10  10  10   1 12
   8  10  10  10  10   1 12
   3  10  10  10  10   1 12
  10  10  10  10  10   1 12
   0   0   0   0   0   0 
